benchmarks_CP/INST_64x64/50/inst64x64_50_89.dzn
S=8;
start=[|
18,	17,	1,	-1,	-1,	-1,	2,	-1,	33,	-1,	10,	28,	53,	7,	-1,	-1,	-1,	-1,	5,	-1,	59,	-1,	-1,	-1,	-1,	63,	-1,	-1,	-1,	-1,	13,	-1,	58,	-1,	-1,	57,	23,	49,	-1,	45,	-1,	-1,	-1,	-1,	38,	-1,	-1,	-1,	52,	56,	-1,	-1,	41,	-1,	-1,	-1,	3,	-1,	-1,	-1,	35,	32,	-1,	48|
-1,	12,	-1,	-1,	-1,	61,	5,	64,	-1,	-1,	55,	36,	25,	-1,	-1,	-1,	-1,	-1,	13,	-1,	-1,	56,	33,	50,	54,	9,	-1,	57,	3,	-1,	22,	24,	4,	-1,	-1,	34,	38,	-1,	37,	8,	58,	18,	-1,	49,	2,	-1,	-1,	20,	26,	-1,	-1,	59,	-1,	-1,	-1,	-1,	10,	23,	46,	14,	6,	-1,	16,	-1|
-1,	9,	19,	57,	3,	-1,	-1,	45,	46,	-1,	-1,	-1,	-1,	31,	-1,	14,	-1,	-1,	-1,	34,	38,	-1,	29,	64,	-1,	-1,	36,	30,	-1,	51,	23,	-1,	21,	-1,	-1,	-1,	59,	-1,	-1,	-1,	-1,	43,	-1,	-1,	-1,	-1,	22,	16,	-1,	-1,	40,	18,	39,	13,	62,	-1,	-1,	58,	7,	56,	60,	63,	-1,	55|
43,	-1,	51,	-1,	54,	56,	33,	-1,	-1,	-1,	-1,	-1,	59,	20,	22,	-1,	25,	-1,	62,	18,	-1,	-1,	30,	42,	-1,	-1,	17,	-1,	39,	-1,	-1,	-1,	47,	19,	40,	46,	-1,	-1,	36,	-1,	-1,	-1,	55,	-1,	29,	8,	-1,	-1,	-1,	-1,	-1,	-1,	64,	-1,	-1,	63,	-1,	11,	34,	-1,	27,	13,	21,	-1|
59,	30,	-1,	38,	8,	55,	-1,	-1,	17,	-1,	50,	-1,	56,	63,	35,	39,	1,	46,	-1,	32,	-1,	-1,	4,	41,	27,	43,	18,	-1,	-1,	29,	-1,	-1,	15,	-1,	-1,	61,	7,	-1,	10,	-1,	-1,	44,	-1,	14,	-1,	-1,	13,	-1,	-1,	11,	42,	-1,	-1,	2,	21,	-1,	-1,	-1,	-1,	-1,	19,	-1,	-1,	45|
36,	20,	62,	26,	29,	-1,	-1,	49,	-1,	-1,	34,	9,	-1,	54,	-1,	-1,	47,	7,	58,	8,	-1,	43,	-1,	-1,	-1,	59,	-1,	38,	-1,	-1,	2,	16,	14,	-1,	24,	63,	-1,	-1,	13,	3,	-1,	39,	-1,	-1,	-1,	35,	-1,	45,	19,	15,	46,	5,	25,	55,	-1,	30,	57,	28,	-1,	31,	51,	-1,	12,	-1|
14,	-1,	6,	-1,	58,	32,	27,	13,	4,	26,	-1,	-1,	52,	40,	-1,	-1,	-1,	39,	-1,	-1,	11,	19,	-1,	-1,	15,	-1,	33,	64,	-1,	55,	61,	-1,	44,	1,	9,	28,	-1,	-1,	-1,	56,	-1,	25,	-1,	41,	-1,	50,	60,	-1,	57,	34,	49,	43,	-1,	48,	23,	7,	53,	5,	-1,	59,	-1,	18,	20,	-1|
34,	-1,	24,	-1,	-1,	-1,	28,	10,	-1,	45,	-1,	61,	13,	57,	27,	11,	9,	6,	55,	36,	35,	23,	12,	49,	-1,	31,	40,	-1,	47,	48,	-1,	-1,	29,	-1,	-1,	-1,	16,	-1,	26,	-1,	-1,	-1,	46,	33,	62,	-1,	-1,	-1,	-1,	-1,	-1,	50,	17,	20,	-1,	-1,	-1,	-1,	41,	22,	-1,	-1,	52,	43|
19,	-1,	-1,	10,	43,	-1,	-1,	12,	-1,	-1,	22,	16,	-1,	9,	44,	57,	-1,	-1,	-1,	17,	-1,	60,	27,	-1,	63,	-1,	-1,	46,	51,	45,	-1,	-1,	50,	30,	-1,	55,	-1,	59,	-1,	31,	4,	-1,	62,	5,	47,	39,	-1,	-1,	6,	-1,	-1,	-1,	58,	7,	32,	11,	33,	-1,	14,	-1,	-1,	8,	-1,	-1|
-1,	-1,	-1,	-1,	-1,	3,	4,	32,	-1,	-1,	-1,	-1,	-1,	-1,	-1,	-1,	-1,	54,	38,	42,	-1,	50,	46,	-1,	-1,	-1,	25,	-1,	-1,	-1,	-1,	-1,	7,	-1,	63,	24,	-1,	28,	-1,	-1,	-1,	51,	-1,	-1,	-1,	26,	-1,	48,	-1,	-1,	-1,	-1,	8,	-1,	49,	37,	62,	-1,	-1,	-1,	-1,	-1,	-1,	56|
26,	27,	5,	-1,	-1,	-1,	41,	-1,	-1,	-1,	48,	20,	-1,	14,	63,	53,	-1,	36,	-1,	-1,	12,	-1,	58,	37,	-1,	-1,	39,	33,	-1,	-1,	60,	-1,	-1,	-1,	-1,	-1,	-1,	-1,	-1,	-1,	56,	-1,	2,	-1,	57,	64,	15,	-1,	-1,	-1,	-1,	-1,	-1,	-1,	-1,	52,	-1,	51,	-1,	61,	-1,	11,	-1,	13|
53,	-1,	-1,	-1,	51,	21,	-1,	34,	62,	50,	45,	-1,	18,	-1,	-1,	56,	-1,	1,	15,	-1,	39,	44,	-1,	-1,	-1,	-1,	37,	-1,	55,	-1,	-1,	8,	9,	-1,	-1,	42,	49,	10,	-1,	-1,	43,	40,	3,	-1,	-1,	63,	11,	36,	24,	60,	4,	19,	-1,	33,	-1,	-1,	17,	-1,	-1,	35,	-1,	12,	22,	-1|
-1,	15,	-1,	-1,	-1,	-1,	-1,	-1,	26,	61,	24,	32,	-1,	58,	28,	-1,	53,	51,	-1,	29,	-1,	4,	-1,	55,	52,	-1,	-1,	14,	-1,	-1,	-1,	43,	45,	11,	25,	-1,	8,	48,	2,	1,	-1,	33,	13,	-1,	-1,	7,	42,	37,	-1,	-1,	36,	54,	-1,	3,	57,	-1,	47,	30,	64,	27,	-1,	60,	49,	6|
-1,	-1,	-1,	13,	28,	64,	-1,	58,	19,	-1,	-1,	15,	-1,	-1,	-1,	-1,	6,	10,	35,	-1,	22,	21,	-1,	-1,	-1,	-1,	3,	-1,	9,	38,	57,	47,	43,	-1,	4,	-1,	-1,	12,	5,	-1,	-1,	-1,	32,	61,	-1,	53,	45,	-1,	-1,	-1,	14,	46,	55,	-1,	31,	-1,	26,	-1,	-1,	25,	59,	-1,	36,	-1|
-1,	-1,	-1,	45,	40,	-1,	-1,	33,	-1,	46,	-1,	35,	47,	-1,	59,	-1,	52,	9,	-1,	-1,	-1,	61,	-1,	43,	-1,	64,	-1,	26,	4,	49,	-1,	15,	60,	-1,	-1,	-1,	20,	-1,	-1,	-1,	-1,	-1,	8,	-1,	-1,	-1,	-1,	24,	5,	27,	53,	13,	22,	39,	56,	42,	-1,	31,	-1,	19,	-1,	-1,	7,	57|
-1,	-1,	-1,	-1,	59,	9,	61,	48,	-1,	-1,	4,	6,	43,	-1,	-1,	27,	7,	30,	-1,	-1,	20,	8,	-1,	33,	35,	54,	-1,	44,	53,	-1,	11,	-1,	41,	-1,	36,	14,	57,	26,	52,	-1,	-1,	21,	49,	-1,	46,	-1,	-1,	-1,	40,	63,	-1,	12,	47,	25,	18,	-1,	-1,	45,	-1,	55,	58,	10,	-1,	-1|
47,	57,	-1,	5,	26,	-1,	56,	29,	-1,	22,	-1,	-1,	50,	-1,	33,	7,	28,	34,	-1,	-1,	-1,	38,	8,	-1,	-1,	25,	32,	-1,	-1,	43,	30,	44,	-1,	46,	-1,	58,	-1,	-1,	-1,	-1,	61,	24,	-1,	-1,	-1,	45,	-1,	-1,	-1,	-1,	55,	-1,	-1,	-1,	48,	54,	-1,	10,	52,	-1,	40,	-1,	-1,	-1|
15,	41,	30,	-1,	-1,	11,	58,	22,	-1,	-1,	43,	-1,	16,	-1,	-1,	-1,	56,	40,	-1,	47,	1,	36,	-1,	24,	-1,	19,	-1,	-1,	-1,	-1,	-1,	62,	42,	-1,	-1,	-1,	-1,	-1,	-1,	-1,	-1,	-1,	-1,	-1,	51,	-1,	-1,	-1,	-1,	13,	57,	-1,	32,	-1,	44,	-1,	34,	-1,	-1,	-1,	17,	-1,	37,	61|
50,	45,	-1,	31,	16,	-1,	-1,	54,	61,	-1,	53,	-1,	42,	-1,	37,	20,	27,	29,	-1,	23,	32,	-1,	55,	44,	-1,	-1,	14,	47,	-1,	11,	52,	26,	-1,	-1,	30,	-1,	-1,	57,	60,	-1,	49,	-1,	25,	-1,	63,	-1,	-1,	-1,	-1,	33,	-1,	-1,	-1,	62,	-1,	64,	-1,	-1,	59,	-1,	-1,	7,	1,	4|
49,	2,	-1,	17,	42,	7,	-1,	-1,	47,	10,	15,	13,	-1,	59,	18,	-1,	-1,	14,	-1,	-1,	-1,	-1,	-1,	19,	-1,	-1,	57,	24,	22,	-1,	38,	55,	28,	48,	33,	-1,	-1,	45,	-1,	-1,	12,	52,	-1,	58,	-1,	37,	27,	-1,	-1,	35,	-1,	56,	11,	-1,	-1,	-1,	21,	20,	-1,	32,	53,	64,	-1,	26|
62,	59,	-1,	-1,	25,	8,	-1,	4,	-1,	38,	52,	-1,	35,	-1,	-1,	24,	-1,	-1,	63,	53,	-1,	7,	60,	16,	12,	-1,	20,	-1,	36,	39,	46,	17,	54,	-1,	32,	2,	61,	-1,	31,	-1,	-1,	64,	6,	-1,	-1,	55,	-1,	42,	-1,	26,	-1,	-1,	30,	22,	-1,	-1,	-1,	50,	13,	51,	18,	58,	45,	-1|
-1,	-1,	9,	6,	34,	-1,	-1,	37,	12,	17,	57,	51,	36,	-1,	-1,	3,	-1,	42,	26,	-1,	31,	-1,	-1,	-1,	2,	41,	-1,	61,	58,	-1,	63,	-1,	-1,	-1,	14,	-1,	-1,	-1,	-1,	-1,	-1,	-1,	10,	54,	-1,	30,	-1,	21,	-1,	-1,	-1,	16,	24,	45,	-1,	-1,	38,	-1,	-1,	-1,	49,	-1,	11,	-1|
-1,	64,	13,	61,	-1,	-1,	23,	-1,	30,	41,	-1,	-1,	4,	-1,	8,	44,	-1,	-1,	39,	25,	-1,	-1,	3,	17,	34,	42,	48,	29,	-1,	-1,	-1,	-1,	35,	-1,	-1,	37,	-1,	7,	19,	-1,	32,	-1,	-1,	36,	-1,	-1,	62,	53,	-1,	28,	-1,	10,	-1,	43,	-1,	-1,	-1,	-1,	-1,	-1,	2,	-1,	31,	9|
44,	32,	-1,	-1,	-1,	-1,	36,	38,	28,	-1,	62,	25,	-1,	56,	45,	-1,	-1,	20,	4,	-1,	37,	-1,	-1,	18,	-1,	-1,	-1,	-1,	-1,	-1,	-1,	-1,	5,	13,	17,	-1,	-1,	43,	22,	-1,	-1,	-1,	-1,	-1,	-1,	-1,	-1,	1,	63,	61,	-1,	15,	-1,	59,	27,	-1,	8,	39,	-1,	-1,	33,	-1,	-1,	16|
-1,	47,	-1,	19,	-1,	17,	-1,	-1,	34,	20,	9,	-1,	39,	29,	54,	-1,	60,	25,	-1,	-1,	8,	-1,	-1,	21,	-1,	51,	2,	-1,	23,	57,	7,	61,	-1,	-1,	-1,	26,	15,	-1,	-1,	58,	45,	4,	-1,	42,	59,	5,	-1,	56,	-1,	41,	63,	52,	-1,	-1,	-1,	-1,	-1,	33,	18,	3,	-1,	27,	-1,	46|
-1,	-1,	-1,	-1,	-1,	-1,	-1,	28,	-1,	-1,	25,	-1,	55,	45,	-1,	-1,	11,	-1,	48,	4,	-1,	-1,	-1,	-1,	36,	49,	-1,	-1,	63,	46,	-1,	-1,	8,	-1,	-1,	-1,	-1,	50,	-1,	27,	54,	62,	-1,	-1,	37,	58,	7,	32,	13,	-1,	-1,	-1,	1,	-1,	-1,	57,	39,	-1,	-1,	6,	61,	-1,	-1,	10|
35,	18,	-1,	-1,	-1,	-1,	-1,	-1,	2,	-1,	-1,	-1,	57,	-1,	16,	-1,	-1,	41,	33,	-1,	58,	-1,	-1,	-1,	60,	52,	-1,	59,	-1,	37,	-1,	-1,	23,	21,	-1,	10,	45,	29,	-1,	53,	-1,	-1,	-1,	-1,	24,	-1,	51,	-1,	15,	-1,	-1,	-1,	34,	31,	-1,	32,	13,	-1,	-1,	36,	-1,	22,	-1,	17|
-1,	-1,	56,	50,	-1,	2,	-1,	-1,	-1,	15,	44,	17,	-1,	-1,	31,	-1,	-1,	26,	-1,	-1,	-1,	37,	-1,	-1,	18,	-1,	53,	-1,	6,	42,	-1,	-1,	13,	51,	-1,	54,	-1,	-1,	-1,	-1,	33,	47,	-1,	48,	16,	-1,	3,	23,	64,	-1,	20,	4,	40,	-1,	59,	-1,	-1,	-1,	35,	30,	-1,	-1,	41,	-1|
37,	13,	16,	-1,	5,	22,	34,	-1,	-1,	-1,	64,	19,	-1,	61,	3,	-1,	40,	-1,	57,	-1,	-1,	-1,	23,	63,	1,	30,	-1,	-1,	-1,	26,	33,	-1,	2,	-1,	-1,	-1,	42,	-1,	17,	20,	-1,	-1,	-1,	-1,	39,	28,	-1,	55,	48,	62,	35,	7,	-1,	-1,	25,	24,	43,	-1,	47,	8,	-1,	-1,	-1,	-1|
11,	-1,	41,	-1,	12,	46,	54,	-1,	-1,	8,	-1,	-1,	-1,	-1,	-1,	-1,	-1,	-1,	-1,	-1,	27,	-1,	-1,	9,	-1,	-1,	45,	-1,	25,	-1,	4,	35,	61,	28,	-1,	40,	-1,	30,	33,	-1,	17,	-1,	-1,	-1,	52,	-1,	-1,	-1,	37,	42,	19,	-1,	29,	-1,	58,	56,	23,	-1,	-1,	7,	38,	-1,	-1,	-1|
58,	61,	25,	-1,	49,	60,	57,	-1,	-1,	-1,	-1,	11,	37,	-1,	-1,	52,	30,	43,	34,	51,	-1,	-1,	-1,	-1,	-1,	-1,	16,	3,	40,	12,	8,	50,	31,	18,	-1,	-1,	-1,	-1,	-1,	-1,	-1,	-1,	-1,	63,	14,	-1,	-1,	44,	-1,	47,	-1,	-1,	-1,	-1,	-1,	10,	-1,	56,	15,	48,	-1,	-1,	-1,	64|
20,	-1,	-1,	7,	-1,	-1,	64,	-1,	59,	-1,	-1,	-1,	-1,	-1,	58,	49,	-1,	62,	36,	-1,	55,	17,	-1,	-1,	39,	44,	-1,	43,	24,	-1,	-1,	-1,	3,	25,	5,	41,	12,	32,	-1,	34,	-1,	2,	22,	-1,	26,	19,	-1,	10,	16,	-1,	-1,	8,	27,	51,	53,	61,	-1,	57,	4,	11,	28,	-1,	40,	31|
-1,	39,	58,	-1,	53,	-1,	-1,	11,	-1,	54,	-1,	21,	-1,	16,	51,	6,	-1,	48,	-1,	26,	44,	33,	32,	-1,	13,	47,	62,	-1,	49,	-1,	-1,	-1,	34,	7,	-1,	-1,	63,	17,	15,	38,	-1,	-1,	19,	64,	18,	10,	-1,	-1,	-1,	-1,	25,	57,	4,	37,	24,	-1,	-1,	61,	-1,	46,	-1,	-1,	-1,	-1|
-1,	-1,	8,	49,	6,	4,	45,	-1,	-1,	43,	-1,	18,	24,	38,	-1,	40,	13,	-1,	42,	-1,	-1,	1,	-1,	-1,	19,	-1,	-1,	-1,	-1,	-1,	50,	60,	-1,	20,	-1,	-1,	55,	52,	-1,	-1,	46,	-1,	37,	-1,	-1,	-1,	-1,	58,	-1,	30,	10,	-1,	-1,	21,	35,	22,	12,	-1,	39,	29,	-1,	48,	62,	-1|
-1,	14,	-1,	62,	-1,	10,	50,	-1,	3,	29,	-1,	4,	-1,	64,	-1,	35,	-1,	-1,	30,	21,	15,	63,	-1,	8,	38,	-1,	28,	51,	-1,	-1,	36,	33,	-1,	39,	60,	43,	-1,	61,	46,	5,	55,	22,	-1,	-1,	-1,	-1,	-1,	17,	2,	-1,	31,	53,	12,	27,	7,	6,	40,	44,	56,	-1,	11,	-1,	42,	-1|
40,	35,	-1,	-1,	32,	-1,	-1,	2,	45,	59,	47,	41,	44,	22,	46,	-1,	-1,	-1,	20,	3,	9,	-1,	-1,	56,	-1,	4,	11,	-1,	1,	-1,	26,	-1,	-1,	-1,	-1,	49,	-1,	-1,	30,	37,	-1,	-1,	60,	-1,	15,	-1,	57,	50,	-1,	58,	62,	48,	5,	42,	61,	18,	28,	-1,	63,	53,	36,	16,	-1,	-1|
64,	26,	-1,	-1,	60,	34,	-1,	-1,	57,	-1,	7,	62,	-1,	53,	25,	-1,	-1,	18,	-1,	61,	-1,	14,	-1,	11,	46,	48,	27,	-1,	44,	-1,	55,	31,	-1,	3,	45,	8,	36,	-1,	-1,	-1,	-1,	59,	42,	-1,	-1,	6,	-1,	13,	29,	-1,	17,	-1,	15,	47,	63,	-1,	50,	35,	-1,	-1,	5,	43,	58,	49|
3,	-1,	-1,	29,	-1,	-1,	-1,	52,	-1,	13,	12,	8,	28,	-1,	-1,	-1,	36,	58,	-1,	59,	51,	-1,	-1,	34,	30,	18,	-1,	-1,	-1,	-1,	41,	-1,	-1,	-1,	-1,	-1,	21,	-1,	-1,	9,	62,	53,	-1,	-1,	32,	-1,	-1,	-1,	46,	19,	39,	14,	-1,	-1,	43,	50,	-1,	24,	38,	10,	-1,	-1,	4,	-1|
46,	-1,	-1,	-1,	19,	-1,	1,	18,	56,	-1,	-1,	39,	-1,	-1,	20,	-1,	43,	53,	49,	38,	2,	-1,	17,	-1,	61,	16,	-1,	-1,	-1,	24,	32,	-1,	62,	22,	-1,	35,	25,	-1,	-1,	23,	14,	29,	7,	-1,	-1,	31,	-1,	12,	-1,	55,	-1,	9,	60,	64,	45,	13,	-1,	-1,	57,	-1,	52,	6,	-1,	-1|
-1,	21,	-1,	-1,	-1,	-1,	-1,	51,	-1,	55,	37,	-1,	-1,	-1,	-1,	-1,	-1,	-1,	27,	-1,	-1,	62,	6,	-1,	59,	45,	-1,	12,	56,	-1,	-1,	-1,	-1,	32,	64,	53,	28,	1,	-1,	-1,	39,	63,	41,	24,	4,	-1,	-1,	35,	33,	44,	16,	-1,	49,	52,	8,	34,	-1,	-1,	3,	15,	47,	23,	-1,	-1|
-1,	53,	3,	-1,	23,	5,	-1,	-1,	37,	-1,	-1,	-1,	-1,	4,	-1,	-1,	-1,	-1,	22,	13,	54,	51,	-1,	60,	-1,	-1,	-1,	-1,	-1,	63,	-1,	25,	-1,	-1,	12,	-1,	19,	14,	58,	59,	-1,	48,	24,	-1,	-1,	-1,	-1,	33,	28,	32,	-1,	45,	-1,	9,	36,	15,	27,	-1,	61,	20,	56,	-1,	29,	62|
30,	-1,	-1,	8,	-1,	63,	-1,	21,	43,	-1,	17,	24,	40,	1,	-1,	-1,	20,	52,	7,	10,	45,	31,	28,	57,	-1,	36,	-1,	-1,	18,	16,	56,	29,	25,	49,	38,	-1,	-1,	64,	3,	-1,	60,	32,	-1,	-1,	55,	27,	4,	-1,	53,	46,	-1,	51,	14,	-1,	-1,	35,	-1,	54,	-1,	37,	12,	-1,	19,	5|
28,	-1,	-1,	11,	46,	26,	-1,	57,	20,	-1,	27,	-1,	-1,	-1,	13,	-1,	-1,	16,	-1,	-1,	-1,	-1,	-1,	-1,	21,	-1,	55,	-1,	-1,	-1,	24,	52,	-1,	45,	-1,	15,	-1,	9,	-1,	-1,	63,	-1,	-1,	-1,	-1,	-1,	6,	-1,	-1,	10,	-1,	31,	-1,	58,	-1,	-1,	44,	1,	22,	-1,	-1,	40,	48,	-1|
-1,	-1,	-1,	-1,	-1,	-1,	-1,	47,	14,	-1,	19,	-1,	-1,	18,	-1,	-1,	34,	21,	59,	-1,	-1,	3,	-1,	12,	-1,	-1,	30,	-1,	33,	-1,	-1,	38,	-1,	56,	-1,	-1,	53,	-1,	-1,	-1,	-1,	28,	-1,	-1,	-1,	-1,	-1,	64,	49,	-1,	48,	-1,	62,	11,	13,	8,	-1,	-1,	10,	16,	39,	-1,	51,	-1|
1,	-1,	-1,	-1,	-1,	-1,	-1,	-1,	-1,	-1,	8,	42,	21,	-1,	53,	-1,	-1,	17,	-1,	33,	48,	46,	-1,	30,	-1,	-1,	-1,	19,	-1,	58,	-1,	39,	55,	37,	62,	-1,	35,	-1,	-1,	54,	-1,	-1,	11,	18,	10,	3,	-1,	-1,	23,	-1,	64,	-1,	-1,	-1,	-1,	-1,	-1,	-1,	25,	45,	-1,	-1,	32,	-1|
7,	36,	-1,	64,	62,	-1,	-1,	27,	32,	-1,	-1,	-1,	-1,	-1,	2,	58,	37,	-1,	53,	-1,	-1,	-1,	14,	23,	45,	-1,	-1,	-1,	26,	35,	54,	-1,	-1,	-1,	10,	-1,	6,	47,	-1,	52,	13,	41,	31,	-1,	9,	-1,	-1,	-1,	-1,	-1,	12,	29,	61,	24,	-1,	-1,	-1,	-1,	30,	17,	-1,	-1,	57,	-1|
-1,	-1,	-1,	16,	-1,	19,	-1,	-1,	11,	-1,	-1,	-1,	41,	28,	-1,	-1,	-1,	38,	9,	24,	6,	58,	-1,	32,	48,	-1,	59,	23,	-1,	-1,	-1,	-1,	30,	34,	-1,	-1,	-1,	-1,	-1,	17,	51,	-1,	-1,	45,	-1,	47,	39,	57,	-1,	-1,	44,	-1,	-1,	-1,	-1,	55,	-1,	13,	-1,	26,	-1,	52,	-1,	-1|
32,	-1,	-1,	55,	18,	58,	20,	-1,	39,	-1,	56,	-1,	-1,	52,	-1,	47,	-1,	-1,	-1,	27,	-1,	41,	49,	29,	44,	-1,	-1,	-1,	-1,	-1,	10,	-1,	33,	-1,	46,	48,	51,	-1,	-1,	28,	-1,	-1,	30,	-1,	-1,	-1,	-1,	62,	7,	-1,	-1,	26,	-1,	-1,	-1,	-1,	-1,	3,	50,	-1,	4,	9,	6,	-1|
-1,	-1,	2,	63,	-1,	23,	-1,	-1,	-1,	39,	-1,	-1,	3,	-1,	55,	-1,	-1,	12,	-1,	7,	-1,	-1,	13,	51,	50,	-1,	-1,	-1,	27,	56,	47,	-1,	64,	60,	58,	33,	1,	37,	21,	-1,	57,	-1,	-1,	-1,	35,	9,	5,	-1,	45,	40,	29,	25,	-1,	-1,	-1,	-1,	-1,	8,	-1,	-1,	-1,	36,	-1,	-1|
-1,	58,	-1,	56,	61,	-1,	-1,	36,	41,	-1,	-1,	53,	-1,	50,	5,	-1,	-1,	-1,	-1,	46,	30,	18,	54,	27,	43,	12,	-1,	-1,	38,	-1,	39,	20,	19,	-1,	8,	7,	-1,	51,	9,	25,	47,	-1,	21,	-1,	40,	14,	-1,	22,	62,	6,	24,	-1,	-1,	35,	-1,	-1,	-1,	-1,	11,	52,	-1,	-1,	-1,	-1|
-1,	40,	34,	3,	52,	13,	-1,	62,	-1,	28,	14,	63,	-1,	-1,	7,	19,	22,	4,	44,	-1,	24,	2,	42,	-1,	53,	-1,	35,	31,	57,	33,	15,	64,	-1,	-1,	59,	-1,	-1,	16,	-1,	-1,	8,	-1,	56,	-1,	61,	36,	37,	27,	-1,	-1,	-1,	30,	-1,	-1,	-1,	-1,	25,	-1,	51,	50,	10,	5,	-1,	-1|
12,	-1,	10,	35,	-1,	-1,	46,	-1,	-1,	-1,	29,	-1,	38,	36,	4,	-1,	-1,	59,	-1,	20,	-1,	-1,	39,	-1,	3,	55,	-1,	-1,	-1,	8,	-1,	-1,	27,	-1,	-1,	-1,	-1,	-1,	-1,	2,	-1,	58,	51,	-1,	45,	32,	-1,	-1,	42,	-1,	-1,	49,	33,	57,	-1,	-1,	60,	64,	28,	-1,	-1,	-1,	-1,	40|
25,	-1,	49,	1,	-1,	37,	29,	-1,	16,	18,	-1,	-1,	-1,	8,	-1,	-1,	31,	23,	-1,	45,	-1,	-1,	-1,	-1,	11,	28,	-1,	-1,	34,	41,	-1,	10,	-1,	36,	52,	-1,	14,	-1,	-1,	40,	-1,	19,	44,	-1,	-1,	-1,	-1,	46,	-1,	-1,	-1,	-1,	-1,	-1,	-1,	9,	-1,	27,	12,	4,	-1,	-1,	35,	-1|
22,	-1,	-1,	-1,	39,	-1,	8,	42,	58,	-1,	20,	26,	31,	34,	-1,	30,	-1,	37,	-1,	-1,	-1,	9,	-1,	62,	-1,	-1,	52,	63,	-1,	23,	44,	48,	-1,	50,	35,	-1,	47,	18,	-1,	-1,	-1,	-1,	-1,	-1,	-1,	-1,	-1,	-1,	-1,	-1,	-1,	-1,	7,	-1,	2,	-1,	29,	41,	-1,	-1,	21,	33,	-1,	32|
21,	-1,	-1,	-1,	-1,	24,	-1,	7,	35,	-1,	23,	-1,	-1,	-1,	-1,	12,	55,	33,	28,	-1,	-1,	52,	53,	36,	-1,	5,	-1,	49,	-1,	62,	9,	45,	63,	-1,	22,	-1,	-1,	38,	-1,	26,	48,	-1,	1,	-1,	13,	41,	-1,	-1,	58,	64,	-1,	-1,	-1,	-1,	-1,	-1,	-1,	2,	-1,	57,	20,	39,	34,	19|
-1,	55,	54,	-1,	64,	41,	-1,	5,	-1,	-1,	-1,	57,	-1,	-1,	-1,	-1,	-1,	15,	14,	11,	25,	34,	21,	-1,	-1,	-1,	-1,	-1,	29,	36,	-1,	59,	39,	-1,	28,	-1,	-1,	53,	-1,	43,	10,	49,	-1,	-1,	60,	2,	-1,	-1,	27,	-1,	22,	63,	-1,	50,	16,	-1,	42,	17,	31,	-1,	-1,	26,	-1,	-1|
-1,	42,	-1,	-1,	-1,	-1,	-1,	-1,	-1,	64,	-1,	23,	-1,	-1,	-1,	51,	4,	60,	43,	48,	46,	-1,	62,	-1,	26,	-1,	-1,	-1,	11,	30,	-1,	-1,	-1,	55,	7,	31,	-1,	54,	-1,	14,	-1,	-1,	-1,	47,	1,	-1,	-1,	25,	21,	8,	56,	-1,	10,	-1,	17,	-1,	2,	22,	-1,	5,	-1,	34,	9,	15|
-1,	10,	-1,	-1,	-1,	44,	26,	-1,	8,	63,	54,	-1,	29,	-1,	-1,	-1,	57,	31,	17,	-1,	-1,	30,	34,	-1,	40,	-1,	46,	18,	-1,	-1,	59,	36,	-1,	-1,	43,	-1,	-1,	-1,	-1,	19,	-1,	15,	-1,	-1,	58,	11,	-1,	-1,	-1,	22,	-1,	23,	-1,	-1,	-1,	-1,	52,	-1,	42,	-1,	13,	-1,	-1,	1|
-1,	3,	20,	-1,	-1,	36,	11,	8,	31,	-1,	-1,	2,	-1,	43,	-1,	-1,	64,	-1,	-1,	-1,	40,	29,	-1,	10,	-1,	39,	58,	-1,	19,	14,	42,	9,	1,	26,	47,	51,	46,	-1,	25,	62,	-1,	-1,	-1,	-1,	-1,	-1,	-1,	59,	-1,	7,	-1,	27,	-1,	-1,	-1,	-1,	-1,	21,	-1,	-1,	63,	-1,	28,	-1|
-1,	-1,	-1,	-1,	33,	1,	-1,	19,	13,	30,	16,	12,	-1,	-1,	21,	-1,	51,	63,	-1,	-1,	26,	-1,	41,	25,	-1,	38,	23,	-1,	-1,	-1,	-1,	-1,	-1,	-1,	-1,	-1,	58,	-1,	-1,	29,	7,	60,	-1,	32,	-1,	52,	56,	4,	-1,	-1,	47,	62,	-1,	-1,	42,	-1,	-1,	-1,	17,	64,	37,	-1,	10,	-1|
-1,	-1,	14,	60,	-1,	-1,	15,	-1,	22,	58,	28,	-1,	-1,	-1,	42,	26,	-1,	49,	-1,	9,	13,	24,	-1,	20,	-1,	7,	61,	-1,	-1,	-1,	21,	-1,	-1,	57,	-1,	38,	30,	-1,	23,	36,	-1,	17,	34,	-1,	-1,	-1,	-1,	-1,	35,	-1,	-1,	-1,	37,	-1,	64,	-1,	18,	48,	-1,	-1,	-1,	-1,	-1,	51|
39,	28,	-1,	-1,	-1,	-1,	63,	-1,	40,	62,	-1,	-1,	7,	-1,	-1,	-1,	-1,	35,	-1,	-1,	-1,	-1,	19,	-1,	-1,	50,	-1,	-1,	17,	-1,	37,	22,	-1,	8,	61,	-1,	27,	-1,	34,	-1,	-1,	-1,	29,	57,	-1,	-1,	-1,	51,	-1,	48,	-1,	-1,	-1,	-1,	54,	-1,	-1,	55,	36,	-1,	-1,	46,	-1,	44|
23,	-1,	64,	30,	37,	-1,	-1,	61,	10,	57,	39,	-1,	60,	-1,	14,	36,	-1,	-1,	-1,	-1,	3,	53,	15,	22,	55,	-1,	-1,	-1,	-1,	-1,	62,	-1,	-1,	24,	-1,	11,	50,	-1,	-1,	13,	5,	-1,	-1,	-1,	31,	-1,	-1,	-1,	59,	-1,	9,	-1,	19,	38,	4,	1,	16,	-1,	-1,	12,	25,	45,	27,	58|
-1,	-1,	-1,	58,	4,	62,	13,	25,	-1,	53,	-1,	-1,	15,	35,	-1,	-1,	-1,	32,	-1,	54,	36,	27,	1,	7,	-1,	-1,	43,	45,	41,	-1,	-1,	57,	37,	-1,	-1,	-1,	17,	40,	-1,	-1,	16,	-1,	39,	-1,	23,	-1,	55,	19,	18,	-1,	-1,	-1,	46,	5,	-1,	31,	30,	47,	-1,	49,	24,	-1,	26,	-1|];
