sudoku-ls/benchmarks_LEQ/INST_64x64/50/inst64x64_50_89.txt
8
1
-1	17	-1	40	-1	-1	2	46	-1	-1	10	-1	-1	-1	-1	8	14	-1	5	60	-1	15	20	-1	-1	63	-1	-1	-1	21	-1	12	58	43	39	57	-1	-1	55	-1	-1	54	36	-1	-1	-1	64	61	52	56	-1	44	-1	-1	22	-1	-1	-1	-1	-1	-1	-1	-1	48
-1	-1	-1	15	-1	61	5	64	-1	32	55	36	25	-1	43	29	44	-1	13	63	-1	-1	-1	-1	54	-1	41	57	3	-1	22	-1	4	35	53	-1	38	11	37	-1	58	18	-1	49	2	-1	30	20	26	31	-1	59	-1	-1	-1	-1	10	-1	46	14	6	17	-1	39
4	9	-1	-1	3	-1	-1	-1	46	-1	-1	-1	-1	-1	-1	-1	-1	28	-1	-1	38	-1	29	-1	-1	26	36	30	-1	-1	-1	-1	21	17	54	27	-1	-1	50	32	6	-1	5	1	-1	12	-1	-1	-1	24	40	-1	39	-1	-1	-1	49	58	7	56	60	63	-1	-1
43	-1	51	-1	-1	56	33	50	-1	-1	58	-1	59	-1	-1	1	25	61	-1	-1	57	-1	-1	-1	-1	35	17	-1	-1	-1	45	-1	47	-1	40	46	48	60	-1	-1	24	26	-1	-1	29	8	-1	-1	14	-1	32	38	64	-1	-1	63	-1	-1	34	44	-1	13	-1	2
-1	-1	48	38	8	-1	47	23	17	-1	-1	-1	-1	-1	35	39	1	46	51	-1	-1	26	-1	-1	-1	43	-1	-1	-1	29	25	49	-1	-1	20	-1	7	33	-1	22	-1	-1	28	14	34	57	-1	-1	9	11	-1	-1	-1	-1	21	-1	54	-1	24	40	-1	-1	64	-1
36	20	-1	26	-1	53	22	-1	-1	48	-1	9	6	-1	-1	64	-1	-1	58	8	-1	43	52	-1	56	-1	-1	-1	-1	-1	-1	16	14	-1	-1	63	-1	42	-1	-1	-1	-1	-1	4	-1	35	-1	-1	-1	-1	46	-1	25	-1	10	-1	-1	-1	-1	31	-1	61	12	-1
14	63	6	37	58	32	-1	-1	4	-1	51	38	52	40	-1	-1	-1	-1	54	22	-1	19	-1	-1	15	-1	-1	-1	-1	55	-1	46	44	-1	9	28	-1	-1	12	-1	-1	-1	-1	-1	-1	50	60	47	-1	-1	-1	43	-1	48	23	7	53	-1	-1	59	-1	18	-1	-1
-1	-1	24	-1	21	-1	28	10	-1	-1	3	61	-1	57	-1	-1	-1	-1	55	-1	-1	23	12	-1	-1	31	-1	32	47	48	-1	-1	29	64	-1	5	-1	2	-1	30	-1	-1	-1	-1	-1	56	59	-1	54	37	-1	50	-1	20	60	4	-1	42	41	-1	-1	-1	52	43
19	-1	35	10	43	52	49	12	29	36	22	-1	-1	-1	44	-1	-1	-1	-1	17	-1	60	27	-1	-1	-1	-1	-1	-1	-1	-1	-1	50	30	-1	-1	37	-1	53	31	4	-1	-1	-1	47	-1	25	41	6	20	61	-1	-1	7	32	11	-1	40	14	38	42	-1	-1	21
-1	1	-1	-1	-1	-1	-1	-1	-1	33	21	-1	5	-1	52	13	-1	-1	-1	-1	47	50	-1	14	6	-1	25	36	30	-1	31	-1	-1	-1	-1	24	22	-1	-1	39	-1	-1	-1	19	-1	-1	58	48	34	45	15	-1	-1	17	-1	37	62	-1	16	-1	-1	-1	-1	56
26	27	-1	-1	47	-1	41	-1	25	-1	48	-1	8	14	63	53	-1	-1	-1	49	-1	-1	-1	37	62	-1	39	-1	42	50	60	34	-1	54	-1	6	40	44	29	-1	-1	9	2	55	-1	-1	15	18	10	-1	59	21	-1	-1	28	-1	4	51	-1	-1	3	-1	-1	-1
-1	23	-1	25	51	21	14	-1	-1	-1	-1	-1	-1	41	38	56	-1	-1	-1	31	-1	44	-1	-1	5	-1	37	16	55	-1	-1	-1	-1	27	13	42	-1	-1	47	-1	-1	-1	-1	-1	6	-1	11	-1	-1	60	-1	19	-1	-1	-1	26	-1	-1	-1	-1	-1	-1	22	-1
-1	15	-1	18	-1	38	44	39	26	61	24	-1	-1	-1	-1	-1	53	51	-1	-1	34	-1	5	55	-1	56	-1	-1	-1	-1	-1	43	45	11	25	-1	8	48	-1	-1	-1	-1	13	31	22	7	42	37	-1	16	-1	54	9	3	57	-1	47	30	-1	27	-1	60	49	-1
-1	-1	37	13	-1	-1	-1	58	19	11	-1	15	-1	-1	-1	-1	6	10	35	16	-1	21	-1	2	7	27	3	-1	-1	-1	-1	-1	43	62	4	-1	34	-1	-1	33	20	50	32	61	-1	53	45	-1	-1	-1	14	-1	55	-1	-1	51	26	-1	48	-1	59	-1	36	63
55	6	36	45	-1	50	-1	33	-1	46	-1	35	47	2	-1	37	52	-1	25	62	-1	-1	11	-1	29	64	1	-1	4	-1	-1	15	-1	58	-1	32	20	-1	-1	-1	28	14	8	10	17	38	12	24	-1	27	53	-1	-1	-1	56	-1	41	-1	23	19	-1	-1	7	57
-1	-1	-1	22	59	-1	-1	-1	-1	-1	4	6	-1	3	-1	-1	-1	-1	-1	64	-1	8	56	-1	35	54	-1	44	53	-1	11	19	41	38	36	14	-1	26	52	-1	-1	-1	-1	-1	46	-1	34	29	40	63	-1	-1	-1	-1	18	-1	-1	45	37	55	58	10	-1	-1
-1	57	-1	5	26	12	56	-1	64	-1	31	1	50	60	-1	7	-1	34	6	2	62	38	8	13	9	-1	32	-1	59	43	-1	44	-1	-1	-1	58	11	-1	18	-1	-1	-1	15	-1	41	45	-1	39	17	-1	55	37	36	-1	48	54	-1	-1	52	42	40	-1	23	-1
15	-1	30	52	-1	-1	58	-1	6	-1	43	-1	16	21	-1	63	-1	40	45	-1	1	36	9	24	33	19	-1	-1	50	28	-1	62	-1	-1	-1	-1	10	23	-1	-1	-1	-1	-1	-1	51	-1	38	-1	8	-1	57	20	32	-1	44	-1	-1	12	27	54	-1	-1	37	61
-1	45	-1	31	-1	-1	35	54	-1	-1	53	-1	42	19	-1	-1	-1	-1	-1	23	-1	-1	55	44	-1	-1	-1	-1	15	11	52	-1	38	6	30	-1	-1	57	-1	24	49	56	25	-1	-1	17	8	-1	39	33	-1	34	2	-1	-1	64	-1	-1	59	-1	48	-1	1	-1
49	2	-1	17	-1	-1	-1	-1	-1	10	15	13	-1	59	18	-1	-1	-1	46	-1	-1	54	-1	-1	-1	-1	57	-1	-1	-1	-1	55	-1	-1	-1	-1	62	45	63	-1	-1	-1	4	58	50	-1	27	60	-1	-1	23	-1	-1	-1	29	-1	21	-1	44	-1	53	64	43	-1
-1	59	-1	-1	-1	8	19	4	27	-1	52	-1	35	-1	40	-1	48	57	63	-1	-1	7	60	16	12	-1	-1	-1	-1	39	46	17	54	15	-1	2	61	34	31	49	-1	-1	6	3	-1	55	-1	42	47	26	21	1	-1	22	14	5	56	-1	-1	-1	18	-1	-1	-1
-1	33	9	6	34	-1	-1	-1	-1	17	-1	-1	-1	32	-1	3	-1	-1	26	52	31	64	-1	-1	-1	-1	-1	-1	-1	-1	-1	-1	59	53	14	-1	44	55	8	47	22	13	-1	-1	28	-1	-1	21	4	-1	7	16	-1	-1	46	19	-1	25	5	60	-1	-1	-1	29
24	-1	13	-1	-1	-1	-1	-1	30	-1	11	-1	-1	-1	8	-1	-1	22	39	-1	49	59	3	-1	34	42	48	-1	-1	54	16	27	-1	40	26	37	-1	7	19	-1	-1	5	-1	36	20	33	-1	-1	51	-1	-1	10	18	-1	-1	12	-1	46	6	-1	2	57	-1	9
44	-1	53	46	10	51	36	-1	-1	-1	-1	-1	49	-1	45	54	-1	20	-1	41	-1	11	50	18	-1	60	-1	7	-1	64	3	-1	5	-1	17	52	-1	-1	-1	-1	29	-1	-1	2	19	-1	-1	-1	-1	61	6	15	42	-1	27	-1	-1	39	-1	24	-1	30	47	16
38	-1	-1	-1	24	-1	-1	-1	-1	20	9	30	39	-1	-1	50	60	25	-1	-1	8	-1	64	-1	14	-1	-1	-1	23	-1	-1	61	6	-1	-1	-1	-1	22	-1	-1	-1	-1	-1	42	59	-1	-1	-1	12	-1	63	52	28	-1	-1	-1	55	-1	-1	3	1	-1	-1	-1
31	29	-1	-1	14	15	-1	28	-1	51	-1	-1	-1	45	12	21	11	56	48	4	16	-1	-1	3	-1	49	-1	-1	63	46	-1	41	8	47	19	44	-1	-1	-1	-1	54	-1	-1	60	37	-1	-1	-1	13	17	18	2	-1	30	33	-1	39	34	20	6	61	42	-1	-1
35	-1	4	-1	-1	40	-1	-1	2	42	6	43	-1	46	-1	-1	-1	41	33	-1	58	20	7	-1	60	52	47	-1	-1	-1	19	56	23	-1	49	-1	45	29	14	53	25	-1	-1	-1	-1	-1	51	-1	15	38	3	-1	34	31	-1	-1	-1	63	-1	36	26	-1	44	17
-1	8	-1	-1	-1	-1	21	55	-1	-1	-1	17	-1	-1	31	32	-1	-1	-1	-1	52	37	10	61	-1	34	53	11	-1	42	27	28	-1	51	-1	-1	-1	-1	38	60	33	47	57	-1	16	46	-1	23	64	-1	-1	4	40	-1	59	43	58	-1	35	30	-1	25	-1	12
-1	-1	-1	53	5	-1	-1	44	-1	-1	64	-1	-1	61	-1	18	40	50	-1	6	14	49	-1	-1	1	30	10	-1	-1	-1	-1	-1	-1	-1	11	4	-1	-1	-1	20	41	38	-1	12	39	28	31	55	48	62	35	-1	-1	54	25	24	43	29	-1	8	-1	51	-1	52
-1	51	-1	39	12	46	54	-1	1	-1	-1	10	63	26	-1	62	-1	-1	18	-1	-1	-1	-1	9	-1	-1	45	55	25	-1	4	35	61	28	57	40	64	-1	33	-1	17	-1	50	13	-1	49	-1	-1	-1	42	-1	6	29	-1	-1	-1	23	16	-1	7	-1	-1	14	24
58	-1	25	-1	-1	60	57	6	5	-1	-1	-1	-1	13	-1	52	-1	-1	-1	-1	-1	42	59	-1	-1	62	16	3	40	-1	8	-1	31	18	-1	-1	24	36	-1	-1	-1	-1	-1	-1	14	21	-1	-1	22	47	45	39	23	-1	-1	-1	32	-1	15	-1	-1	19	-1	-1
20	-1	42	-1	45	30	64	63	59	-1	33	-1	-1	48	58	-1	46	62	-1	-1	-1	-1	-1	-1	39	-1	21	-1	24	13	29	-1	-1	-1	-1	41	-1	32	-1	-1	15	2	22	-1	-1	-1	18	10	16	-1	60	8	-1	51	-1	-1	37	-1	4	-1	28	-1	40	31
56	-1	58	27	-1	-1	-1	11	50	-1	36	21	-1	-1	51	-1	-1	-1	41	-1	-1	-1	-1	-1	-1	-1	-1	-1	-1	-1	-1	-1	34	7	-1	12	-1	-1	15	38	40	45	-1	64	-1	10	2	9	-1	23	-1	57	4	37	-1	-1	31	-1	60	-1	-1	55	59	-1
61	-1	8	49	6	-1	45	15	63	-1	-1	-1	24	-1	-1	-1	13	-1	-1	28	-1	1	31	-1	19	57	-1	17	14	53	50	60	56	-1	2	-1	55	-1	-1	41	46	16	37	-1	3	23	33	58	32	-1	10	-1	-1	21	-1	-1	-1	26	-1	29	-1	-1	62	-1
41	14	-1	-1	9	-1	50	-1	-1	-1	-1	-1	-1	-1	19	35	24	-1	-1	21	15	-1	37	8	-1	23	28	51	20	-1	-1	-1	18	-1	60	43	-1	-1	46	-1	55	-1	52	-1	49	48	-1	17	-1	59	31	53	-1	27	-1	6	40	44	56	-1	-1	-1	-1	34
40	-1	23	12	-1	43	-1	-1	-1	59	-1	41	-1	22	-1	-1	-1	-1	-1	3	9	55	25	-1	10	4	11	-1	1	52	-1	-1	24	14	-1	49	29	-1	-1	-1	34	-1	-1	-1	-1	54	-1	-1	38	-1	62	48	-1	42	61	18	-1	-1	63	53	36	-1	-1	27
-1	26	-1	-1	-1	34	37	-1	-1	52	7	62	-1	-1	25	2	23	18	-1	61	10	-1	-1	11	-1	48	27	39	44	9	-1	-1	-1	-1	-1	8	-1	-1	-1	4	-1	-1	-1	38	56	6	-1	13	-1	54	-1	-1	15	47	63	-1	50	35	-1	41	-1	43	58	-1
3	-1	-1	29	-1	42	-1	-1	60	13	12	8	-1	49	-1	17	-1	58	16	59	51	57	35	34	30	18	54	-1	7	15	41	37	40	33	-1	47	21	6	-1	-1	62	53	-1	-1	-1	25	-1	-1	46	19	39	-1	26	56	43	50	45	-1	38	-1	-1	-1	4	-1
46	-1	-1	-1	19	54	-1	-1	56	27	-1	-1	-1	-1	-1	-1	43	-1	49	-1	-1	-1	17	4	-1	-1	-1	-1	8	-1	-1	-1	-1	22	-1	-1	-1	-1	48	23	14	-1	7	28	36	31	-1	-1	-1	55	-1	9	-1	64	45	-1	-1	37	-1	-1	52	-1	-1	-1
13	21	-1	36	22	25	-1	51	-1	-1	37	-1	-1	42	48	-1	-1	19	27	5	60	62	-1	46	59	45	29	-1	56	40	-1	-1	26	-1	-1	53	-1	-1	57	10	-1	63	-1	24	4	-1	-1	35	33	-1	-1	11	-1	-1	8	34	-1	14	-1	-1	-1	-1	-1	18
10	-1	3	42	-1	5	-1	-1	-1	-1	-1	7	64	4	-1	55	-1	-1	-1	13	-1	51	-1	60	-1	-1	-1	-1	43	63	34	-1	16	31	-1	-1	-1	-1	58	59	-1	-1	24	-1	-1	1	-1	33	28	-1	-1	-1	52	9	36	15	-1	38	-1	20	56	-1	29	-1
-1	50	15	-1	-1	-1	-1	21	43	23	-1	24	40	1	-1	22	20	52	7	-1	-1	31	28	-1	41	-1	9	42	-1	-1	56	-1	-1	-1	-1	-1	26	-1	3	61	60	32	-1	44	-1	27	-1	-1	53	-1	33	51	-1	-1	-1	-1	11	54	-1	-1	12	47	-1	-1
-1	-1	59	-1	-1	-1	51	57	-1	60	-1	-1	-1	30	-1	-1	-1	16	2	-1	42	-1	61	47	-1	3	55	-1	-1	-1	24	52	-1	45	-1	15	-1	-1	7	18	-1	-1	-1	50	-1	29	-1	14	-1	-1	38	-1	-1	-1	-1	17	44	-1	22	-1	8	40	-1	-1
-1	24	44	4	-1	45	-1	-1	14	9	19	-1	26	18	29	5	-1	-1	59	-1	50	-1	63	-1	-1	-1	30	37	-1	27	-1	-1	36	-1	41	-1	53	20	-1	57	-1	-1	-1	-1	-1	-1	35	-1	-1	25	-1	22	62	11	-1	8	46	43	10	-1	39	-1	51	-1
-1	-1	-1	9	-1	-1	-1	31	38	44	8	-1	-1	51	-1	-1	-1	-1	56	-1	-1	-1	-1	-1	-1	-1	-1	-1	28	-1	-1	-1	55	37	-1	22	35	-1	-1	54	52	61	11	18	10	3	-1	34	23	-1	64	47	-1	-1	6	27	36	-1	25	-1	41	15	32	7
7	36	-1	-1	62	-1	38	27	32	-1	-1	50	48	15	-1	-1	-1	8	53	-1	4	25	-1	-1	45	-1	51	-1	26	-1	-1	-1	-1	-1	10	39	-1	-1	-1	-1	-1	41	-1	56	9	16	-1	49	-1	-1	-1	29	-1	24	40	21	59	-1	30	17	55	-1	57	42
-1	60	61	-1	-1	-1	-1	-1	11	-1	46	-1	-1	28	-1	-1	62	-1	9	-1	6	58	36	-1	-1	15	-1	23	-1	-1	-1	7	30	34	-1	-1	2	-1	-1	17	-1	37	-1	-1	21	47	39	57	-1	18	44	42	50	-1	1	55	-1	13	49	-1	14	52	63	-1
32	34	-1	55	18	-1	-1	-1	39	-1	-1	-1	61	-1	-1	47	15	-1	1	27	-1	-1	49	-1	44	-1	60	-1	-1	-1	10	-1	-1	-1	-1	48	-1	21	42	28	-1	12	30	-1	-1	-1	-1	-1	-1	-1	-1	-1	43	19	5	-1	-1	-1	50	2	-1	-1	-1	35
-1	-1	2	-1	-1	-1	-1	26	24	-1	42	52	-1	11	-1	-1	-1	12	-1	7	41	10	13	-1	50	-1	22	54	-1	-1	47	-1	-1	-1	58	-1	1	-1	-1	-1	-1	-1	16	-1	35	9	5	38	-1	40	29	25	31	28	19	-1	-1	-1	-1	18	46	-1	-1	59
45	-1	-1	56	61	57	-1	36	-1	-1	13	53	-1	50	5	10	16	-1	-1	46	-1	-1	54	27	43	12	-1	-1	-1	-1	39	20	-1	-1	8	-1	-1	51	9	-1	-1	-1	21	29	40	-1	-1	22	-1	6	24	17	-1	-1	-1	23	48	-1	-1	52	44	49	55	37
60	40	-1	-1	52	-1	-1	62	49	-1	14	-1	54	-1	-1	-1	-1	-1	-1	58	-1	-1	-1	26	-1	21	35	31	-1	-1	-1	64	-1	-1	-1	-1	-1	16	41	55	-1	23	-1	-1	61	36	37	-1	11	39	-1	30	20	18	12	-1	-1	9	-1	-1	10	5	-1	47
-1	-1	10	35	44	48	-1	17	15	21	-1	22	-1	-1	4	-1	-1	-1	50	-1	-1	-1	-1	1	3	55	-1	-1	61	8	-1	-1	27	-1	34	62	-1	31	24	2	-1	-1	-1	30	45	-1	26	6	42	-1	-1	-1	33	-1	37	41	-1	64	28	-1	16	56	-1	40
25	38	-1	1	-1	37	-1	20	-1	-1	-1	59	-1	8	17	60	31	-1	-1	45	56	6	48	5	11	28	42	-1	34	41	-1	-1	57	36	52	30	14	15	54	-1	64	-1	-1	-1	33	43	24	46	-1	21	13	-1	-1	26	-1	-1	-1	-1	-1	-1	-1	-1	-1	22
22	-1	27	14	-1	59	-1	42	-1	40	-1	-1	-1	-1	64	30	-1	37	60	57	-1	-1	38	62	16	6	-1	-1	13	-1	44	48	-1	-1	-1	-1	-1	-1	-1	-1	3	-1	-1	-1	54	4	-1	15	-1	-1	-1	-1	7	-1	2	53	29	41	-1	-1	-1	33	-1	32
-1	16	-1	47	30	24	31	7	-1	-1	23	-1	51	-1	32	12	-1	33	28	40	29	52	-1	-1	37	5	4	-1	-1	62	-1	45	63	10	-1	17	3	38	-1	-1	-1	42	1	-1	13	41	-1	11	-1	-1	-1	60	56	8	15	-1	-1	2	54	-1	-1	39	-1	-1
33	55	54	-1	-1	-1	9	-1	-1	37	-1	57	-1	47	56	-1	8	-1	14	11	-1	-1	21	-1	-1	-1	-1	-1	29	-1	-1	59	-1	12	28	-1	13	-1	6	43	-1	49	-1	62	-1	2	-1	-1	27	-1	22	63	-1	-1	-1	-1	-1	17	31	-1	23	26	30	-1
16	-1	52	-1	-1	-1	-1	-1	44	-1	49	23	-1	37	-1	51	-1	-1	-1	-1	-1	39	62	58	26	-1	-1	28	-1	30	35	-1	12	-1	7	-1	-1	-1	59	14	36	3	38	47	-1	-1	40	25	-1	8	-1	-1	-1	-1	-1	-1	-1	22	-1	5	-1	-1	-1	15
5	10	12	-1	38	44	-1	-1	-1	63	54	3	-1	27	9	41	57	-1	-1	37	61	30	-1	6	-1	24	46	-1	-1	47	59	-1	-1	2	-1	-1	-1	39	45	19	-1	-1	33	20	58	-1	-1	-1	25	-1	-1	23	-1	32	55	16	52	-1	42	-1	-1	4	-1	-1
-1	-1	20	-1	-1	-1	-1	-1	31	24	-1	2	-1	-1	6	-1	-1	-1	-1	-1	-1	29	16	-1	49	-1	-1	-1	-1	14	42	-1	-1	26	47	51	-1	5	-1	-1	37	-1	-1	-1	12	44	-1	59	50	7	-1	-1	57	15	-1	-1	35	-1	53	33	63	-1	-1	-1
-1	-1	55	34	33	-1	-1	-1	-1	30	16	-1	45	5	-1	46	-1	-1	-1	50	26	-1	-1	-1	-1	38	-1	-1	-1	-1	53	3	22	-1	15	-1	-1	35	20	-1	7	60	54	32	48	-1	56	-1	-1	36	-1	-1	6	-1	-1	-1	61	-1	-1	64	37	14	-1	-1
-1	46	-1	-1	56	47	15	-1	22	-1	-1	55	-1	-1	-1	26	-1	49	-1	9	-1	-1	-1	20	25	-1	-1	1	-1	5	-1	32	-1	-1	6	38	-1	-1	-1	-1	-1	-1	34	-1	43	-1	-1	-1	35	-1	-1	3	-1	-1	64	-1	18	-1	40	-1	-1	-1	-1	-1
39	28	-1	-1	31	-1	63	-1	40	62	-1	-1	-1	-1	-1	-1	-1	35	-1	-1	18	-1	-1	-1	4	-1	15	52	17	60	-1	22	53	-1	61	16	-1	56	-1	-1	2	-1	-1	-1	-1	24	-1	-1	-1	48	26	-1	13	12	-1	58	20	-1	36	23	32	-1	3	-1
23	-1	-1	30	37	29	40	61	-1	-1	39	-1	60	-1	-1	36	42	2	-1	44	-1	-1	-1	-1	55	33	-1	-1	-1	20	62	51	52	-1	-1	-1	50	41	32	13	-1	-1	-1	21	-1	18	-1	-1	-1	-1	-1	-1	19	38	4	1	16	6	-1	12	25	-1	-1	58
51	22	-1	58	4	62	-1	-1	52	53	59	-1	15	-1	-1	48	-1	32	11	54	36	27	1	-1	64	10	43	45	-1	34	-1	-1	-1	-1	3	21	-1	40	-1	63	-1	-1	-1	-1	23	42	-1	19	18	14	-1	-1	-1	-1	-1	31	-1	47	8	-1	-1	-1	-1	-1
64 
27 8 46 32
51 22 31 63
46 50 44 22
25 42 48 61
32 35 34 11
44 31 28 29
12 3 52 27
41 45 8 51
32 50 52 16
47 15 12 38
52 2 61 51
20 41 41 35
21 59 7 8
46 23 42 53
12 19 49 5
61 29 4 22
32 22 37 51
5 27 25 59
52 21 17 57
28 51 48 7
37 47 7 41
37 23 15 53
9 21 13 16
6 35 7 15
18 36 26 11
15 28 50 27
8 15 63 63
46 62 59 63
62 43 39 42
11 8 4 23
54 13 57 36
37 59 33 23
13 42 11 28
43 60 25 9
43 22 47 5
25 47 54 49
3 19 21 26
1 45 32 24
34 59 45 32
44 44 48 3
25 50 7 44
10 20 56 57
51 7 46 20
64 34 53 43
12 11 35 18
13 3 52 7
30 15 32 23
41 42 56 9
55 28 33 29
45 27 54 34
8 35 39 57
34 38 26 37
30 47 63 22
40 63 6 14
26 13 54 42
5 13 25 48
24 42 35 3
60 37 29 32
50 53 34 36
10 12 19 39
3 49 59 47
25 39 49 59
52 17 49 4
27 43 3 24
